db/data/3143146281012651622031306152931617670.z3.out
sat
-------------------
793.341022242
